benchmark/results/graph__10-1000-0.10-02_14/error_log/graph__10-1000-0.10-02_14_Quinton_Benders_primal_sub_ERRORLOG.lp
\ This file has been generated by DOcplex
\ ENCODING=ISO-8859-1
\Problem name: Quinton Benders_primal_sub

Maximize
 obj: tau
Subject To
 c1: tau <= 0.000789265983
 c2: y_a0_proc_0 + y_a0_proc_1 - tau = 0
 c3: y_a0_proc_0 <= 1
 c4: y_a0_proc_1 <= 0
 c5: tau <= 0.001113585746
 c6: y_a1_proc_0 + y_a1_proc_1 - tau = 0
 c7: y_a1_proc_0 <= 1
 c8: y_a1_proc_1 <= 0
 c9: tau <= 0.001160092807
 c10: y_a2_proc_1 - tau = 0
 c11: y_a2_proc_1 <= 1
 c12: tau <= 0.000959692898
 c13: y_a3_proc_0 + y_a3_proc_1 - tau = 0
 c14: y_a3_proc_0 <= 0
 c15: y_a3_proc_1 <= 1
 c16: tau <= 0.000982318271
 c17: y_a4_proc_0 - tau = 0
 c18: y_a4_proc_0 <= 1
 c19: tau <= 0.002352941176
 c20: y_a5_proc_0 - tau = 0
 c21: y_a5_proc_0 <= 1
 c22: tau <= 0.000772200772
 c23: y_a6_proc_0 + y_a6_proc_1 - tau = 0
 c24: y_a6_proc_0 <= 1
 c25: y_a6_proc_1 <= 0
 c26: tau <= 0.001157407407
 c27: y_a7_proc_0 + y_a7_proc_1 - tau = 0
 c28: y_a7_proc_0 <= 1
 c29: y_a7_proc_1 <= 0
 c30: tau <= 0.001396648045
 c31: y_a8_proc_0 + y_a8_proc_1 - tau = 0
 c32: y_a8_proc_0 <= 1
 c33: y_a8_proc_1 <= 0
 c34: tau <= 0.000823723229
 c35: y_a9_proc_0 + y_a9_proc_1 - tau = 0
 c36: y_a9_proc_0 <= 0
 c37: y_a9_proc_1 <= 1
 c38: u_a0 - u_a1 - 898 y_a1_proc_0 - 757 y_a1_proc_1 >= 0
 c39: u_a1 - u_a2 - 862 y_a2_proc_1 >= 0
 c40: u_a2 - u_a3 - 663 y_a3_proc_0 - 1042 y_a3_proc_1 >= 0
 c41: u_a2 - u_a4 - 1018 y_a4_proc_0 >= 0
 c42: u_a5 - u_a0 - 1267 y_a0_proc_0 - 955 y_a0_proc_1 >= 0
 c43: u_a5 - u_a6 - 1295 y_a6_proc_0 - 924 y_a6_proc_1 >= 0
 c44: u_a3 - u_a7 - 864 y_a7_proc_0 - 785 y_a7_proc_1 >= -1
 c45: u_a8 - u_a6 - 1295 y_a6_proc_0 - 924 y_a6_proc_1 >= 0
 c46: u_a9 - u_a8 - 716 y_a8_proc_0 - 1235 y_a8_proc_1 >= 0
 c47: u_a4 - u_a6 - 1295 y_a6_proc_0 - 924 y_a6_proc_1 >= 0
 c48: u_a4 - u_a8 - 716 y_a8_proc_0 - 1235 y_a8_proc_1 >= 0
 c49: u_a7 - u_a5 - 425 y_a5_proc_0 >= 0
 c50: u_a8 - u_a2 - 862 y_a2_proc_1 >= -1
 c51: u_a3 - u_a0 - 1267 y_a0_proc_0 - 955 y_a0_proc_1 >= -1
 c52: u_a7 - u_a3 - 663 y_a3_proc_0 - 1042 y_a3_proc_1 >= 0
 c53: u_a2 - u_a5 - 425 y_a5_proc_0 >= -1
 c54: u_a8 - u_a7 - 864 y_a7_proc_0 - 785 y_a7_proc_1 >= -1
 c55: - 754 y_a9_proc_0 - 1214 y_a9_proc_1 >= -1
 c56: u_a1 - u_a0 - 955 y_a0_proc_1 >= -2591
 c57: u_a1 - u_a0 - 1267 y_a0_proc_0 >= -1
 c58: u_a0 - u_a1 - 757 y_a1_proc_1 >= -2590
 c59: u_a0 - u_a1 - 898 y_a1_proc_0 >= 0
 c60: u_a2 - u_a0 - 955 y_a0_proc_1 >= -2591
 c61: u_a0 - u_a2 - 862 y_a2_proc_1 >= 0
 c62: u_a3 - u_a0 - 955 y_a0_proc_1 >= -2591
 c63: u_a3 - u_a0 - 1267 y_a0_proc_0 >= -2591
 c64: u_a0 - u_a3 - 1042 y_a3_proc_1 >= 0
 c65: u_a0 - u_a3 - 663 y_a3_proc_0 >= 0
 c66: u_a4 - u_a0 - 1267 y_a0_proc_0 >= -1
 c67: u_a0 - u_a4 - 1018 y_a4_proc_0 >= 0
 c68: u_a5 - u_a0 - 1267 y_a0_proc_0 >= 0
 c69: u_a0 - u_a5 - 425 y_a5_proc_0 >= -1
 c70: u_a6 - u_a0 - 955 y_a0_proc_1 >= -5183
 c71: u_a6 - u_a0 - 1267 y_a0_proc_0 >= -2593
 c72: u_a0 - u_a6 - 924 y_a6_proc_1 >= 2
 c73: u_a0 - u_a6 - 1295 y_a6_proc_0 >= 2592
 c74: u_a7 - u_a0 - 955 y_a0_proc_1 >= -2590
 c75: u_a7 - u_a0 - 1267 y_a0_proc_0 >= 0
 c76: u_a0 - u_a7 - 785 y_a7_proc_1 >= -2591
 c77: u_a0 - u_a7 - 864 y_a7_proc_0 >= -1
 c78: u_a8 - u_a0 - 955 y_a0_proc_1 >= -2591
 c79: u_a8 - u_a0 - 1267 y_a0_proc_0 >= -1
 c80: u_a0 - u_a8 - 1235 y_a8_proc_1 >= -2590
 c81: u_a0 - u_a8 - 716 y_a8_proc_0 >= 0
 c82: u_a9 - u_a0 - 955 y_a0_proc_1 >= 999996112
 c83: u_a9 - u_a0 - 1267 y_a0_proc_0 >= 999996112
 c84: u_a0 - u_a9 - 1214 y_a9_proc_1 >= -999998703
 c85: u_a0 - u_a9 - 754 y_a9_proc_0 >= -999998703
 c86: u_a2 - u_a1 - 757 y_a1_proc_1 >= -2591
 c87: u_a1 - u_a2 - 862 y_a2_proc_1 >= 0
 c88: u_a3 - u_a1 - 757 y_a1_proc_1 >= -2591
 c89: u_a3 - u_a1 - 898 y_a1_proc_0 >= -2591
 c90: u_a1 - u_a3 - 1042 y_a3_proc_1 >= 0
 c91: u_a1 - u_a3 - 663 y_a3_proc_0 >= 0
 c92: u_a4 - u_a1 - 898 y_a1_proc_0 >= -1
 c93: u_a1 - u_a4 - 1018 y_a4_proc_0 >= 0
 c94: u_a5 - u_a1 - 898 y_a1_proc_0 >= 0
 c95: u_a1 - u_a5 - 425 y_a5_proc_0 >= -1
 c96: u_a6 - u_a1 - 757 y_a1_proc_1 >= -5183
 c97: u_a6 - u_a1 - 898 y_a1_proc_0 >= -2593
 c98: u_a1 - u_a6 - 924 y_a6_proc_1 >= 2
 c99: u_a1 - u_a6 - 1295 y_a6_proc_0 >= 2592
 c100: u_a7 - u_a1 - 757 y_a1_proc_1 >= -2590
 c101: u_a7 - u_a1 - 898 y_a1_proc_0 >= 0
 c102: u_a1 - u_a7 - 785 y_a7_proc_1 >= -2591
 c103: u_a1 - u_a7 - 864 y_a7_proc_0 >= -1
 c104: u_a8 - u_a1 - 757 y_a1_proc_1 >= -2591
 c105: u_a8 - u_a1 - 898 y_a1_proc_0 >= -1
 c106: u_a1 - u_a8 - 1235 y_a8_proc_1 >= -2590
 c107: u_a1 - u_a8 - 716 y_a8_proc_0 >= 0
 c108: u_a9 - u_a1 - 757 y_a1_proc_1 >= 999996112
 c109: u_a9 - u_a1 - 898 y_a1_proc_0 >= 999996112
 c110: u_a1 - u_a9 - 1214 y_a9_proc_1 >= -999998703
 c111: u_a1 - u_a9 - 754 y_a9_proc_0 >= -999998703
 c112: u_a3 - u_a2 - 862 y_a2_proc_1 >= -1
 c113: u_a2 - u_a3 - 1042 y_a3_proc_1 >= 0
 c114: u_a6 - u_a2 - 862 y_a2_proc_1 >= -5183
 c115: u_a2 - u_a6 - 924 y_a6_proc_1 >= 2592
 c116: u_a7 - u_a2 - 862 y_a2_proc_1 >= -2590
 c117: u_a2 - u_a7 - 785 y_a7_proc_1 >= -1
 c118: u_a8 - u_a2 - 862 y_a2_proc_1 >= -2591
 c119: u_a2 - u_a8 - 1235 y_a8_proc_1 >= 0
 c120: u_a9 - u_a2 - 862 y_a2_proc_1 >= 999998702
 c121: u_a2 - u_a9 - 1214 y_a9_proc_1 >= -999998703
 c122: u_a4 - u_a3 - 663 y_a3_proc_0 >= -1
 c123: u_a3 - u_a4 - 1018 y_a4_proc_0 >= -2590
 c124: u_a5 - u_a3 - 663 y_a3_proc_0 >= -2590
 c125: u_a3 - u_a5 - 425 y_a5_proc_0 >= -1
 c126: u_a6 - u_a3 - 1042 y_a3_proc_1 >= -5183
 c127: u_a6 - u_a3 - 663 y_a3_proc_0 >= -5183
 c128: u_a3 - u_a6 - 924 y_a6_proc_1 >= 2592
 c129: u_a3 - u_a6 - 1295 y_a6_proc_0 >= 2592
 c130: u_a7 - u_a3 - 1042 y_a3_proc_1 >= -2590
 c131: u_a7 - u_a3 - 663 y_a3_proc_0 >= -2590
 c132: u_a3 - u_a7 - 785 y_a7_proc_1 >= -1
 c133: u_a3 - u_a7 - 864 y_a7_proc_0 >= -1
 c134: u_a8 - u_a3 - 1042 y_a3_proc_1 >= -2591
 c135: u_a8 - u_a3 - 663 y_a3_proc_0 >= -2591
 c136: u_a3 - u_a8 - 1235 y_a8_proc_1 >= 0
 c137: u_a3 - u_a8 - 716 y_a8_proc_0 >= 0
 c138: u_a9 - u_a3 - 1042 y_a3_proc_1 >= 999998702
 c139: u_a9 - u_a3 - 663 y_a3_proc_0 >= 999996112
 c140: u_a3 - u_a9 - 1214 y_a9_proc_1 >= -999998703
 c141: u_a3 - u_a9 - 754 y_a9_proc_0 >= -1000001293
 c142: u_a5 - u_a4 - 1018 y_a4_proc_0 >= 0
 c143: u_a4 - u_a5 - 425 y_a5_proc_0 >= -1
 c144: u_a6 - u_a4 - 1018 y_a4_proc_0 >= -2592
 c145: u_a4 - u_a6 - 1295 y_a6_proc_0 >= 2591
 c146: u_a7 - u_a4 - 1018 y_a4_proc_0 >= 0
 c147: u_a4 - u_a7 - 864 y_a7_proc_0 >= -1
 c148: u_a8 - u_a4 - 1018 y_a4_proc_0 >= -1
 c149: u_a4 - u_a8 - 716 y_a8_proc_0 >= 0
 c150: u_a9 - u_a4 - 1018 y_a4_proc_0 >= 999998703
 c151: u_a4 - u_a9 - 754 y_a9_proc_0 >= -1000001294
 c152: u_a6 - u_a5 - 425 y_a5_proc_0 >= -2593
 c153: u_a5 - u_a6 - 1295 y_a6_proc_0 >= 2592
 c154: u_a7 - u_a5 - 425 y_a5_proc_0 >= 0
 c155: u_a5 - u_a7 - 864 y_a7_proc_0 >= -1
 c156: u_a8 - u_a5 - 425 y_a5_proc_0 >= -1
 c157: u_a5 - u_a8 - 716 y_a8_proc_0 >= 0
 c158: u_a9 - u_a5 - 425 y_a5_proc_0 >= 999996112
 c159: u_a5 - u_a9 - 754 y_a9_proc_0 >= -999998703
 c160: u_a7 - u_a6 - 924 y_a6_proc_1 >= 2
 c161: u_a7 - u_a6 - 1295 y_a6_proc_0 >= 2592
 c162: u_a6 - u_a7 - 785 y_a7_proc_1 >= -5183
 c163: u_a6 - u_a7 - 864 y_a7_proc_0 >= -2593
 c164: u_a8 - u_a6 - 924 y_a6_proc_1 >= 1
 c165: u_a8 - u_a6 - 1295 y_a6_proc_0 >= 2591
 c166: u_a6 - u_a8 - 1235 y_a8_proc_1 >= -5182
 c167: u_a6 - u_a8 - 716 y_a8_proc_0 >= -2592
 c168: u_a9 - u_a6 - 924 y_a6_proc_1 >= 999998704
 c169: u_a9 - u_a6 - 1295 y_a6_proc_0 >= 999998704
 c170: u_a6 - u_a9 - 1214 y_a9_proc_1 >= -1000001295
 c171: u_a6 - u_a9 - 754 y_a9_proc_0 >= -1000001295
 c172: u_a8 - u_a7 - 785 y_a7_proc_1 >= -2591
 c173: u_a8 - u_a7 - 864 y_a7_proc_0 >= -1
 c174: u_a7 - u_a8 - 1235 y_a8_proc_1 >= -2590
 c175: u_a7 - u_a8 - 716 y_a8_proc_0 >= 0
 c176: u_a9 - u_a7 - 785 y_a7_proc_1 >= 999996112
 c177: u_a9 - u_a7 - 864 y_a7_proc_0 >= 999996112
 c178: u_a7 - u_a9 - 1214 y_a9_proc_1 >= -999998703
 c179: u_a7 - u_a9 - 754 y_a9_proc_0 >= -999998703
 c180: u_a9 - u_a8 - 1235 y_a8_proc_1 >= 999996113
 c181: u_a9 - u_a8 - 716 y_a8_proc_0 >= 999996113
 c182: u_a8 - u_a9 - 1214 y_a9_proc_1 >= -999998704
 c183: u_a8 - u_a9 - 754 y_a9_proc_0 >= -999998704

Bounds
End
