benchmark/results/graph__10-1000-0.10-02_14/error_log/graph__10-1000-0.10-02_14_Quinton_Benders_primal_sub_ERRORLOG.txt
solution for: Quinton Benders_primal_sub
objective: 0.000104156
status: OPTIMAL_SOLUTION(2)
u_a0=2592.427
u_a1=2592.333
u_a2=2592.243
u_a3=2592.135
u_a4=2591.768
u_a5=2592.559
u_a7=2592.603
u_a8=2591.693
u_a9=1000001294.874
tau=0.000
y_a0_proc_0=0.000
y_a1_proc_0=0.000
y_a2_proc_1=0.000
y_a3_proc_1=0.000
y_a4_proc_0=0.000
y_a5_proc_0=0.000
y_a6_proc_0=0.000
y_a7_proc_0=0.000
y_a8_proc_0=0.000
y_a9_proc_1=0.000
